10	5
0	2	4	1
1	1	6
2	1	11
3	2	10	9
4	1	7
5	1	8
6	1	3
7	1	11
8	1	11
9	1	11
10	1	11
11	0
0	0	0	0	0	0	0
1	4	0	5	0	0	1
2	10	1	4	4	0	0
3	5	5	0	3	0	0
4	5	0	5	3	2	2
5	3	0	0	3	0	5
6	2	4	0	0	3	4
7	7	0	5	2	0	5
8	4	0	1	2	0	3
9	1	1	0	0	0	0
10	6	0	0	0	5	3
11	0	0	0	0	0	0
5	5	5	5	5
